NAME : X_30_seed_123_id_8
TYPE : CVRP
DIMENSION : 237
EDGE_WEIGHT_TYPE : EUC_2D
CAPACITY : 18
NODE_COORD_SECTION
1	0	0
2	539	708
3	784	675
4	147	963
5	505	411
6	117	949
7	701	783
8	820	486
9	221	29
10	211	799
11	173	665
12	386	865
13	265	676
14	506	336
15	171	93
16	27	854
17	652	216
18	874	657
19	859	482
20	764	577
21	68	249
22	687	785
23	171	548
24	634	314
25	619	630
26	758	48
27	313	353
28	10	930
29	728	796
30	119	749
31	959	704
32	828	612
33	715	435
34	492	869
35	68	110
36	87	20
37	704	407
38	595	575
39	440	335
40	459	89
41	261	633
42	18	323
43	644	362
44	409	103
45	94	273
46	776	929
47	926	934
48	16	255
49	688	127
50	174	176
51	375	163
52	356	372
53	136	419
54	490	70
55	449	833
56	118	468
57	488	587
58	139	297
59	899	931
60	249	950
61	123	422
62	516	566
63	921	55
64	223	952
65	944	141
66	140	791
67	81	895
68	140	238
69	501	430
70	183	927
71	39	535
72	112	145
73	781	287
74	601	580
75	193	351
76	769	830
77	955	104
78	255	390
79	270	559
80	230	743
81	989	86
82	602	332
83	859	90
84	797	129
85	861	706
86	310	661
87	348	781
88	236	910
89	433	269
90	368	929
91	751	130
92	299	784
93	943	546
94	752	160
95	100	573
96	224	828
97	470	54
98	219	528
99	203	441
100	895	767
101	584	136
102	74	285
103	17	431
104	208	209
105	505	255
106	622	356
107	141	974
108	192	775
109	906	942
110	91	800
111	164	585
112	118	752
113	178	579
114	404	717
115	79	560
116	904	936
117	296	494
118	833	798
119	736	175
120	190	821
121	945	612
122	382	332
123	664	193
124	865	94
125	807	809
126	692	300
127	347	318
128	348	382
129	493	669
130	634	672
131	60	721
132	328	429
133	956	693
134	35	370
135	806	226
136	91	924
137	200	780
138	140	421
139	418	179
140	794	990
141	703	57
142	186	246
143	332	723
144	933	795
145	104	614
146	953	937
147	807	201
148	228	960
149	705	320
150	887	154
151	737	718
152	634	216
153	51	419
154	739	349
155	514	308
156	707	429
157	708	931
158	842	983
159	706	417
160	239	582
161	458	242
162	561	523
163	791	378
164	530	7
165	68	896
166	570	286
167	704	403
168	631	217
169	787	180
170	690	799
171	955	813
172	889	344
173	686	111
174	605	187
175	215	828
176	18	722
177	341	854
178	404	878
179	172	799
180	93	784
181	677	58
182	872	384
183	917	403
184	345	105
185	819	910
186	40	251
187	841	379
188	306	827
189	886	150
190	830	766
191	424	679
192	776	781
193	624	908
194	7	274
195	413	371
196	91	858
197	6	811
198	937	811
199	729	514
200	196	689
201	507	307
202	497	979
203	988	620
204	338	536
205	460	206
206	510	407
207	121	715
208	888	689
209	824	688
210	968	980
211	635	568
212	760	938
213	911	979
214	871	108
215	91	933
216	716	997
217	447	584
218	315	668
219	667	913
220	235	698
221	786	300
222	814	726
223	852	800
224	87	388
225	867	957
226	735	851
227	481	208
228	842	181
229	194	46
230	936	639
231	675	172
232	173	881
233	126	787
234	307	492
235	64	332
236	331	103
237	195	75
DEMAND_SECTION
1	0
2	1
3	1
4	1
5	1
6	1
7	1
8	1
9	1
10	1
11	1
12	1
13	1
14	1
15	1
16	1
17	1
18	1
19	1
20	1
21	1
22	1
23	1
24	1
25	1
26	1
27	1
28	1
29	1
30	1
31	1
32	1
33	1
34	1
35	1
36	1
37	1
38	1
39	1
40	1
41	1
42	1
43	1
44	1
45	1
46	1
47	1
48	1
49	1
50	1
51	1
52	1
53	1
54	1
55	1
56	1
57	1
58	1
59	1
60	1
61	1
62	1
63	1
64	1
65	1
66	1
67	1
68	1
69	1
70	1
71	1
72	1
73	1
74	1
75	1
76	1
77	1
78	1
79	1
80	1
81	1
82	1
83	1
84	1
85	1
86	1
87	1
88	1
89	1
90	1
91	1
92	1
93	1
94	1
95	1
96	1
97	1
98	1
99	1
100	1
101	1
102	1
103	1
104	1
105	1
106	1
107	1
108	1
109	1
110	1
111	1
112	1
113	1
114	1
115	1
116	1
117	1
118	1
119	1
120	1
121	1
122	1
123	1
124	1
125	1
126	1
127	1
128	1
129	1
130	1
131	1
132	1
133	1
134	1
135	1
136	1
137	1
138	1
139	1
140	1
141	1
142	1
143	1
144	1
145	1
146	1
147	1
148	1
149	1
150	1
151	1
152	1
153	1
154	1
155	1
156	1
157	1
158	1
159	1
160	1
161	1
162	1
163	1
164	1
165	1
166	1
167	1
168	1
169	1
170	1
171	1
172	1
173	1
174	1
175	1
176	1
177	1
178	1
179	1
180	1
181	1
182	1
183	1
184	1
185	1
186	1
187	1
188	1
189	1
190	1
191	1
192	1
193	1
194	1
195	1
196	1
197	1
198	1
199	1
200	1
201	1
202	1
203	1
204	1
205	1
206	1
207	1
208	1
209	1
210	1
211	1
212	1
213	1
214	1
215	1
216	1
217	1
218	1
219	1
220	1
221	1
222	1
223	1
224	1
225	1
226	1
227	1
228	1
229	1
230	1
231	1
232	1
233	1
234	1
235	1
236	1
237	1
DEPOT_SECTION
1
-1
EOF
